
  22   10
  10   10   10   10   10   10   10   10   10   10

   0   0   0   0   0   0   0   0   0   0   0   4 2 5 7 8 
   4  10  10  10  10  10  10  10  10  10  10   2 6 3 
   6  10  10  10  10  10  10  10  10  10  10   1 4 
   1  10  10  10  10  10  10  10  10  10  10   3 13 10 9 
   3  10  10  10  10  10  10  10  10  10  10   3 13 10 9 
   1  10  10  10  10  10  10  10  10  10  10   3 21 13 11 
   4  10  10  10  10  10  10  10  10  10  10   3 13 12 9 
   7  10  10  10  10  10  10  10  10  10  10   2 21 11 
   4  10  10  10  10  10  10  10  10  10  10   4 21 20 17 14 
   1  10  10  10  10  10  10  10  10  10  10   1 11 
   8  10  10  10  10  10  10  10  10  10  10   2 20 12 
   3  10  10  10  10  10  10  10  10  10  10   1 14 
   1  10  10  10  10  10  10  10  10  10  10   3 20 19 17 
   1  10  10  10  10  10  10  10  10  10  10   2 19 15 
   5  10  10  10  10  10  10  10  10  10  10   1 16 
   3  10  10  10  10  10  10  10  10  10  10   1 18 
   6  10  10  10  10  10  10  10  10  10  10   1 18 
   4  10  10  10  10  10  10  10  10  10  10   1 22
  10  10  10  10  10  10  10  10  10  10  10   1 22
   8  10  10  10  10  10  10  10  10  10  10   1 22
   3  10  10  10  10  10  10  10  10  10  10   1 22
   0   0   0   0   0   0   0   0   0   0   0   0 
